p tw 25 63
0 1
0 6
0 9
0 11
0 17
0 22
0 14
1 13
1 21
1 12
1 6
2 3
3 4
3 14
3 7
4 5
4 17
4 24
4 23
5 15
5 16
5 9
5 8
5 6
6 7
6 10
6 8
6 16
6 13
7 10
7 11
7 15
7 19
7 23
7 17
7 20
7 24
7 22
8 9
9 22
9 10
10 13
10 11
10 18
11 12
11 18
11 22
11 15
12 17
12 18
12 24
14 16
14 20
14 22
15 18
15 20
16 20
16 22
17 18
17 20
17 22
20 23
20 21
